NAME: random95
TYPE: TSP
DIMENSION: 95
EDGE_WEIGHT_TYPE: EXPLICIT
EDGE_WEIGHT_FORMAT: FULL_MATRIX
EDGE_WEIGHT_SECTION
0 660 660 660 660 660 660 660 660 660 660 660 660 4 660 660 660 660 660 15 660 660 660 660 12 660 660 660 660 660 660 660 660 660 660 660 660 660 14 660 660 660 6 660 660 660 660 660 660 660 660 660 660 660 660 660 660 660 660 660 660 660 660 660 660 660 660 660 660 660 660 660 660 660 660 660 660 660 660 660 660 660 660 660 660 660 660 660 660 660 660 660 660 660 660
660 0 660 660 660 660 660 660 660 660 660 660 660 660 660 660 660 660 660 660 660 660 660 660 660 660 8 660 660 660 660 660 660 660 660 660 660 660 660 660 660 660 660 660 660 660 660 660 15 660 6 660 660 660 660 660 660 660 660 19 660 660 660 660 660 660 660 660 660 660 660 660 660 660 660 660 660 660 660 660 660 660 660 660 660 660 660 660 660 660 660 660 660 660 660
660 660 0 660 660 9 660 660 660 660 660 660 660 660 660 660 660 660 660 660 660 660 10 16 660 660 660 660 660 660 660 660 660 660 660 660 660 660 660 660 660 660 660 660 660 660 660 660 660 660 660 10 660 15 660 660 660 660 660 660 660 660 660 660 660 660 8 660 660 660 660 660 660 660 660 660 660 660 660 660 660 660 660 660 660 660 660 660 660 660 660 660 660 660 660
660 660 660 0 660 660 660 660 660 14 660 660 660 660 660 660 660 660 660 660 660 660 660 660 660 660 660 660 660 660 660 660 660 660 660 660 660 660 660 660 660 660 660 660 660 660 660 660 660 660 660 660 660 660 660 660 660 660 660 660 22 660 660 660 660 660 660 660 660 660 660 660 15 660 660 660 660 660 660 12 12 660 21 660 660 660 660 660 660 660 660 660 660 660 660
660 660 660 660 0 660 660 660 660 660 660 660 660 660 32 660 660 660 660 660 660 660 660 660 660 660 660 660 660 660 660 660 660 660 660 660 660 660 660 660 660 660 660 660 660 660 18 660 20 660 660 660 660 660 660 660 660 660 660 17 660 660 19 660 660 660 660 660 660 660 660 660 660 660 660 660 660 660 660 660 660 660 660 660 7 660 660 660 660 660 23 660 660 660 660
660 660 9 660 660 0 660 660 660 660 660 660 660 660 660 660 660 660 660 660 660 660 17 660 660 660 660 660 660 660 2 660 660 660 660 660 660 660 660 660 660 660 660 660 660 660 660 660 660 660 660 660 660 17 660 660 660 660 660 660 660 660 660 660 660 660 660 660 660 660 660 660 660 660 660 660 660 660 660 660 660 660 660 660 18 660 660 660 660 660 660 660 660 660 660
660 660 660 660 660 660 0 660 660 660 26 660 660 660 660 660 660 660 660 660 660 26 660 660 660 660 660 660 660 660 660 660 660 19 660 660 660 660 660 660 4 660 660 660 660 660 660 660 660 660 660 660 660 660 660 660 660 660 14 660 660 660 660 660 660 660 660 660 660 660 660 660 8 660 660 660 660 660 660 660 13 660 660 660 660 660 6 660 660 660 660 660 660 660 660
660 660 660 660 660 660 660 0 660 660 660 660 660 660 10 6 660 660 660 660 660 660 660 660 660 660 660 660 660 660 660 660 13 660 660 660 660 17 660 660 660 660 660 660 660 660 660 11 660 660 660 660 660 660 660 660 660 660 660 660 660 660 660 660 660 660 660 660 660 660 660 660 660 660 660 660 660 660 660 660 660 660 660 660 660 660 660 660 660 660 660 660 660 660 660
660 660 660 660 660 660 660 660 0 660 660 660 660 660 660 660 12 660 660 14 660 660 660 660 660 660 660 660 660 660 660 660 660 660 660 660 660 660 660 660 660 660 660 4 660 660 660 660 660 660 660 660 660 660 660 660 660 660 660 660 660 660 660 660 7 660 660 660 660 660 660 660 660 660 660 660 660 660 660 660 660 660 660 660 660 660 660 660 660 660 660 660 660 660 660
660 660 660 14 660 660 660 660 660 0 660 660 660 660 660 660 660 660 660 660 660 660 660 660 660 660 660 660 660 660 660 15 660 660 660 660 660 660 660 660 660 660 660 660 660 660 660 660 660 660 660 660 660 660 660 660 660 660 660 660 18 660 660 9 660 660 660 660 660 660 660 660 660 660 660 660 660 660 14 20 660 660 660 660 660 660 660 660 660 660 660 660 660 660 660
660 660 660 660 660 660 26 660 660 660 0 660 660 660 660 660 660 660 660 660 660 6 660 660 660 660 660 660 660 660 660 660 660 660 1 660 660 660 660 9 660 660 660 660 660 660 660 660 660 660 660 660 660 660 660 660 660 660 660 660 660 660 660 660 660 660 660 660 660 27 660 660 660 660 660 660 660 660 660 660 660 660 660 660 660 660 28 660 660 660 660 660 660 660 660
660 660 660 660 660 660 660 660 660 660 660 0 660 660 660 660 660 660 660 660 660 660 660 660 6 660 660 660 660 660 660 660 660 660 660 660 660 660 7 660 660 660 660 660 660 660 660 660 660 660 660 660 660 660 660 660 660 660 660 660 660 660 660 660 660 660 660 660 9 660 660 660 660 660 660 660 660 660 660 660 660 660 660 660 660 660 660 660 660 660 660 660 10 660 660
660 660 660 660 660 660 660 660 660 660 660 660 0 660 660 660 660 660 660 660 660 660 660 660 660 660 660 660 660 660 660 660 660 660 660 660 660 660 660 23 660 660 660 660 660 8 660 7 660 660 660 660 660 9 660 660 20 660 660 660 660 660 660 660 660 660 660 660 660 3 660 660 660 660 660 660 660 660 660 660 660 660 660 660 660 660 660 660 660 660 660 660 660 660 660
4 660 660 660 660 660 660 660 660 660 660 660 660 0 660 660 17 660 660 16 660 660 660 660 12 660 660 660 660 660 660 660 660 660 660 660 660 660 660 660 660 660 660 660 660 660 660 660 660 660 660 660 660 660 660 660 660 660 660 660 660 660 660 660 12 660 660 660 660 660 660 660 660 660 660 660 660 660 660 660 660 660 660 660 660 660 660 660 660 28 660 660 660 660 660
660 660 660 660 32 660 660 10 660 660 660 660 660 660 0 12 660 660 660 660 660 660 660 660 660 660 660 660 660 660 6 660 660 660 660 660 660 27 660 660 660 660 660 660 660 660 660 660 660 660 660 660 660 15 660 660 660 660 660 660 660 660 660 660 660 660 660 660 660 660 660 660 660 660 660 660 660 660 660 660 660 660 660 660 24 660 660 660 660 660 55 660 660 660 660
660 660 660 660 660 660 660 6 660 660 660 660 660 660 12 0 660 660 660 660 660 660 660 660 660 660 660 660 660 660 660 660 660 660 660 660 660 660 660 660 660 660 660 660 660 660 660 7 660 660 660 660 660 6 660 660 660 660 660 660 660 660 660 660 660 660 660 660 660 660 660 660 660 660 660 660 660 660 660 660 660 660 660 660 660 660 660 660 660 660 660 660 660 660 660
660 660 660 660 660 660 660 660 12 660 660 660 660 17 660 660 0 660 660 660 660 660 660 660 660 660 660 660 660 660 660 660 660 19 660 660 660 660 660 660 660 660 660 15 660 660 660 660 660 660 660 660 660 660 660 660 660 660 7 660 660 660 660 660 10 660 660 660 660 660 660 660 660 660 660 660 660 660 660 660 660 660 660 660 660 660 660 660 660 27 660 660 660 660 660
660 660 660 660 660 660 660 660 660 660 660 660 660 660 660 660 660 0 660 660 660 660 660 660 660 15 660 660 660 660 660 660 660 660 660 660 660 660 660 660 660 660 660 660 660 660 660 660 660 660 660 660 660 660 660 3 660 660 660 660 660 660 660 660 660 660 660 660 6 660 26 660 660 37 660 660 660 660 660 660 660 660 660 11 660 660 660 660 660 660 660 660 23 660 660
660 660 660 660 660 660 660 660 660 660 660 660 660 660 660 660 660 660 0 660 660 660 660 660 660 2 660 660 3 660 660 660 660 660 660 660 660 660 660 660 660 660 660 660 660 660 660 660 660 660 660 660 660 660 660 660 660 660 660 660 660 660 660 660 660 660 660 660 660 660 660 660 660 660 660 660 10 660 660 660 660 660 660 6 660 660 660 660 6 9 660 660 660 660 660
15 660 660 660 660 660 660 660 14 660 660 660 660 16 660 660 660 660 660 0 660 19 660 660 660 660 660 660 660 660 660 660 660 660 660 660 660 660 660 660 660 660 16 17 660 660 660 660 660 16 660 660 660 660 660 660 660 21 660 660 660 660 660 660 12 660 660 660 660 660 660 660 660 660 660 660 660 660 660 660 660 660 660 660 660 660 660 660 660 660 660 660 660 660 660
660 660 660 660 660 660 660 660 660 660 660 660 660 660 660 660 660 660 660 660 0 660 660 660 660 660 660 660 660 660 660 660 660 660 660 660 660 660 660 660 660 660 660 660 19 660 660 660 660 660 660 660 10 660 660 660 660 660 660 660 660 660 660 5 660 660 660 660 660 660 660 14 660 660 660 660 660 660 11 660 660 660 660 660 660 660 660 660 660 660 660 660 660 660 10
660 660 660 660 660 660 26 660 660 660 6 660 660 660 660 660 660 660 660 19 660 0 660 660 660 660 660 660 660 660 660 660 660 660 6 660 660 660 660 660 660 660 660 4 660 660 660 660 660 660 660 660 660 660 660 660 660 21 20 660 660 660 660 660 660 660 660 660 660 660 660 660 660 660 660 660 660 660 660 660 660 660 660 660 660 660 660 660 660 660 660 660 660 660 660
660 660 10 660 660 17 660 660 660 660 660 660 660 660 660 660 660 660 660 660 660 660 0 660 660 660 660 660 660 660 660 660 660 660 660 6 660 660 660 660 660 660 660 660 660 660 660 660 660 660 660 660 660 660 660 660 660 660 660 10 660 660 660 660 660 660 6 660 660 660 660 660 660 660 660 660 660 660 660 660 660 660 660 660 13 660 660 660 660 660 660 660 660 660 660
660 660 16 660 660 660 660 660 660 660 660 660 660 660 660 660 660 660 660 660 660 660 660 0 660 660 660 660 660 660 660 660 660 660 660 660 660 660 660 660 660 660 660 660 660 660 660 660 660 660 660 17 660 5 660 660 660 660 660 660 660 660 660 660 660 660 660 660 660 6 660 660 660 660 660 660 660 660 660 660 660 660 660 660 660 660 660 17 660 660 660 660 660 660 660
12 660 660 660 660 660 660 660 660 660 660 6 660 12 660 660 660 660 660 660 660 660 660 660 0 660 660 660 660 660 660 660 660 660 660 660 660 660 9 660 660 660 660 660 660 660 660 660 660 660 660 660 660 660 660 14 660 660 660 660 660 660 660 660 660 660 660 660 12 660 660 660 660 660 660 660 660 660 660 660 660 660 660 660 660 660 660 660 660 22 660 660 660 660 660
660 660 660 660 660 660 660 660 660 660 660 660 660 660 660 660 660 15 2 660 660 660 660 660 660 0 660 660 2 660 660 660 660 660 660 660 660 660 660 660 660 660 660 660 660 660 660 660 660 660 660 660 660 660 660 660 660 660 660 660 660 660 660 660 660 660 660 660 660 660 13 660 660 660 660 660 660 660 660 660 660 660 660 7 660 660 660 660 660 660 660 660 660 660 660
660 8 660 660 660 660 660 660 660 660 660 660 660 660 660 660 660 660 660 660 660 660 660 660 660 660 0 660 660 660 660 23 660 660 660 660 660 660 660 660 660 660 660 660 660 660 660 660 18 660 13 660 48 660 660 660 660 660 660 660 660 660 22 660 660 660 660 660 660 660 660 660 660 660 660 660 660 660 31 21 660 660 660 660 660 660 660 660 660 660 29 660 660 660 660
660 660 660 660 660 660 660 660 660 660 660 660 660 660 660 660 660 660 660 660 660 660 660 660 660 660 660 0 660 660 660 660 660 660 660 660 18 660 660 660 660 660 660 660 660 660 660 660 660 660 660 660 660 660 660 660 660 660 660 660 660 660 660 660 660 660 660 660 660 660 18 13 660 660 660 660 660 660 660 660 660 660 660 660 660 660 660 660 660 660 660 6 660 660 660
660 660 660 660 660 660 660 660 660 660 660 660 660 660 660 660 660 660 3 660 660 660 660 660 660 2 660 660 0 660 660 660 660 660 660 660 11 660 660 660 660 660 660 660 660 660 660 660 660 660 660 660 660 660 660 660 660 660 660 660 660 660 660 660 660 660 660 660 660 660 12 660 660 660 660 660 660 660 660 660 660 660 660 660 660 660 660 660 5 660 660 660 660 660 660
660 660 660 660 660 660 660 660 660 660 660 660 660 660 660 660 660 660 660 660 660 660 660 660 660 660 660 660 660 0 660 660 660 660 660 660 660 660 660 660 660 660 660 660 660 660 660 660 660 660 660 660 11 660 660 660 660 660 660 660 660 660 660 660 660 660 660 660 660 660 660 9 660 660 660 660 660 660 660 660 660 660 660 660 660 660 660 660 660 660 660 8 660 660 10
660 660 660 660 660 2 660 660 660 660 660 660 660 660 6 660 660 660 660 660 660 660 660 660 660 660 660 660 660 660 0 660 660 660 660 660 660 660 660 660 660 660 660 660 660 660 660 660 660 660 660 660 660 16 660 660 660 660 660 660 660 660 660 660 660 660 660 660 660 660 660 660 660 660 660 660 660 660 660 660 660 660 660 660 19 660 660 660 660 660 660 660 660 660 660
660 660 660 660 660 660 660 660 660 15 660 660 660 660 660 660 660 660 660 660 660 660 660 660 660 660 23 660 660 660 660 0 660 660 660 660 660 660 660 660 660 660 660 660 660 660 660 660 660 660 660 660 660 660 660 660 660 660 660 660 660 660 660 660 660 660 660 660 660 660 660 660 660 660 660 660 660 660 8 21 660 660 660 660 660 660 660 660 660 660 660 660 660 660 660
660 660 660 660 660 660 660 13 660 660 660 660 660 660 660 660 660 660 660 660 660 660 660 660 660 660 660 660 660 660 660 660 0 660 660 660 660 7 660 660 660 660 660 660 660 7 660 9 660 660 660 660 660 660 660 660 660 660 660 660 660 660 660 660 660 660 660 7 660 660 660 660 660 660 660 660 660 660 660 660 660 660 660 660 660 660 660 660 660 660 660 660 660 660 660
660 660 660 660 660 660 19 660 660 660 660 660 660 660 660 660 19 660 660 660 660 660 660 660 660 660 660 660 660 660 660 660 660 0 660 660 660 660 660 660 660 660 660 660 660 660 660 660 660 660 660 660 660 660 660 660 660 660 15 660 660 660 660 660 660 660 660 660 660 660 660 660 660 660 660 2 660 660 660 660 14 10 660 660 660 660 660 660 660 20 660 660 660 660 660
660 660 660 660 660 660 660 660 660 660 1 660 660 660 660 660 660 660 660 660 660 6 660 660 660 660 660 660 660 660 660 660 660 660 0 660 660 660 660 9 660 14 660 660 660 660 660 660 660 660 660 660 660 660 660 660 660 20 660 660 660 660 660 660 660 660 660 660 660 660 660 660 660 660 660 660 660 660 660 660 660 660 660 660 660 660 660 660 660 660 660 660 660 660 660
660 660 660 660 660 660 660 660 660 660 660 660 660 660 660 660 660 660 660 660 660 660 6 660 660 660 660 660 660 660 660 660 660 660 660 0 660 660 660 660 660 660 660 660 660 660 660 660 660 660 660 660 660 660 660 660 660 660 660 7 660 660 660 660 660 660 7 660 660 660 660 660 660 660 660 660 660 7 660 660 660 660 660 660 660 660 660 660 660 660 660 660 660 10 660
660 660 660 660 660 660 660 660 660 660 660 660 660 660 660 660 660 660 660 660 660 660 660 660 660 660 660 18 11 660 660 660 660 660 660 660 0 660 660 660 660 660 660 660 16 660 660 660 660 660 660 660 660 660 660 660 660 660 660 660 660 660 660 660 660 660 660 660 660 660 4 22 660 660 660 660 660 660 660 660 660 660 660 660 660 660 660 660 10 660 660 660 660 660 660
660 660 660 660 660 660 660 17 660 660 660 660 660 660 27 660 660 660 660 660 660 660 660 660 660 660 660 660 660 660 660 660 7 660 660 660 660 0 660 660 660 660 660 660 660 660 660 660 660 660 660 660 660 660 660 660 660 660 660 660 660 15 660 660 660 660 660 9 660 660 660 660 660 660 660 660 660 660 660 660 660 660 660 660 660 660 660 660 660 660 660 660 660 660 660
14 660 660 660 660 660 660 660 660 660 660 7 660 660 660 660 660 660 660 660 660 660 660 660 9 660 660 660 660 660 660 660 660 660 660 660 660 660 0 660 660 660 13 660 660 660 660 660 660 660 660 660 660 660 660 660 660 660 660 660 660 660 660 660 660 660 660 660 660 660 660 660 660 660 10 660 660 660 660 660 660 660 660 660 660 660 660 660 660 660 660 660 5 660 660
660 660 660 660 660 660 660 660 660 660 9 660 23 660 660 660 660 660 660 660 660 660 660 660 660 660 660 660 660 660 660 660 660 660 9 660 660 660 660 0 660 9 660 660 660 660 660 660 660 660 660 660 660 660 660 660 25 660 660 660 660 660 660 660 660 660 660 660 660 23 660 660 660 660 660 660 660 660 660 660 660 660 660 660 660 23 660 660 660 660 660 660 660 660 660
660 660 660 660 660 660 4 660 660 660 660 660 660 660 660 660 660 660 660 660 660 660 660 660 660 660 660 660 660 660 660 660 660 660 660 660 660 660 660 660 0 660 660 660 660 660 660 660 660 660 660 660 660 660 660 660 660 660 660 660 660 660 660 660 660 660 660 660 660 660 660 660 7 660 660 660 660 660 660 660 660 660 10 660 660 660 3 660 660 660 660 660 660 660 660
660 660 660 660 660 660 660 660 660 660 660 660 660 660 660 660 660 660 660 660 660 660 660 660 660 660 660 660 660 660 660 660 660 660 14 660 660 660 660 9 660 0 660 660 660 660 660 660 660 660 660 660 660 660 9 660 660 12 660 660 660 660 660 660 660 660 660 660 660 660 660 660 660 660 660 660 660 660 660 660 660 660 660 660 660 21 660 660 660 660 660 660 660 660 660
6 660 660 660 660 660 660 660 660 660 660 660 660 660 660 660 660 660 660 16 660 660 660 660 660 660 660 660 660 660 660 660 660 660 660 660 660 660 13 660 660 660 0 660 660 660 660 660 660 18 660 660 660 660 660 660 660 660 660 660 660 660 660 660 660 14 660 660 660 660 660 660 660 660 13 660 660 660 660 660 660 660 660 660 660 660 660 660 660 660 660 660 660 660 660
660 660 660 660 660 660 660 660 4 660 660 660 660 660 660 660 15 660 660 17 660 4 660 660 660 660 660 660 660 660 660 660 660 660 660 660 660 660 660 660 660 660 660 0 660 660 660 660 660 660 660 660 660 660 660 660 660 660 18 660 660 660 660 660 660 660 660 660 660 660 660 660 660 660 660 660 660 660 660 660 660 660 660 660 660 660 660 660 660 660 660 660 660 660 660
660 660 660 660 660 660 660 660 660 660 660 660 660 660 660 660 660 660 660 660 19 660 660 660 660 660 660 660 660 660 660 660 660 660 660 660 16 660 660 660 660 660 660 660 0 660 660 660 660 660 660 660 660 660 660 660 660 660 660 660 9 660 660 17 660 660 660 660 660 660 660 17 660 660 660 660 660 660 660 660 660 660 660 660 660 660 660 660 16 660 660 660 660 660 660
660 660 660 660 660 660 660 660 660 660 660 660 8 660 660 660 660 660 660 660 660 660 660 660 660 660 660 660 660 660 660 660 7 660 660 660 660 660 660 660 660 660 660 660 660 0 660 3 660 660 660 660 660 660 660 660 16 660 660 660 660 660 660 660 660 660 660 11 660 660 660 660 660 660 660 660 660 660 660 660 660 660 660 660 660 660 660 660 660 660 660 660 660 660 660
660 660 660 660 18 660 660 660 660 660 660 660 660 660 660 660 660 660 660 660 660 660 660 660 660 660 660 660 660 660 660 660 660 660 660 660 660 660 660 660 660 660 660 660 660 660 0 660 3 660 660 660 660 660 660 660 660 660 660 660 660 660 3 660 660 660 660 660 660 660 660 660 660 660 660 660 660 660 660 660 660 660 660 660 660 660 660 660 660 660 660 660 660 660 660
660 660 660 660 660 660 660 11 660 660 660 660 7 660 660 7 660 660 660 660 660 660 660 660 660 660 660 660 660 660 660 660 9 660 660 660 660 660 660 660 660 660 660 660 660 3 660 0 660 660 660 660 660 9 660 660 660 660 660 660 660 660 660 660 660 660 660 660 660 660 660 660 660 660 660 660 660 660 660 660 660 660 660 660 660 660 660 660 660 660 660 660 660 660 660
660 15 660 660 20 660 660 660 660 660 660 660 660 660 660 660 660 660 660 660 660 660 660 660 660 660 18 660 660 660 660 660 660 660 660 660 660 660 660 660 660 660 660 660 660 660 3 660 0 660 660 660 660 660 660 660 660 660 660 21 660 660 6 660 660 660 660 660 660 660 660 660 660 660 660 660 660 660 660 660 660 660 660 660 660 660 660 660 660 660 660 660 660 660 660
660 660 660 660 660 660 660 660 660 660 660 660 660 660 660 660 660 660 660 16 660 660 660 660 660 660 660 660 660 660 660 660 660 660 660 660 660 660 660 660 660 660 18 660 660 660 660 660 660 0 660 660 660 660 36 660 660 27 660 660 660 660 660 660 660 22 660 660 660 660 660 660 660 22 660 660 660 660 660 660 660 660 660 660 660 660 660 660 660 660 660 660 660 660 660
660 6 660 660 660 660 660 660 660 660 660 660 660 660 660 660 660 660 660 660 660 660 660 660 660 660 13 660 660 660 660 660 660 660 660 660 660 660 660 660 660 660 660 660 660 660 660 660 660 660 0 660 660 660 660 660 660 660 660 17 660 660 660 660 660 660 660 660 660 660 660 660 660 660 660 660 660 21 660 11 660 660 660 660 660 660 660 660 660 660 660 660 660 660 660
660 660 10 660 660 660 660 660 660 660 660 660 660 660 660 660 660 660 660 660 660 660 660 17 660 660 660 660 660 660 660 660 660 660 660 660 660 660 660 660 660 660 660 660 660 660 660 660 660 660 660 0 660 660 660 660 660 660 660 660 660 660 660 660 660 660 6 660 660 660 660 660 660 660 660 660 660 660 660 660 660 660 660 660 660 660 660 9 660 660 660 660 660 2 660
660 660 660 660 660 660 660 660 660 660 660 660 660 660 660 660 660 660 660 660 10 660 660 660 660 660 48 660 660 11 660 660 660 660 660 660 660 660 660 660 660 660 660 660 660 660 660 660 660 660 660 660 0 660 660 660 660 660 660 660 660 660 660 660 660 660 660 660 660 660 660 660 660 660 660 660 660 660 17 660 660 660 660 660 660 660 660 660 660 660 76 660 660 660 2
660 660 15 660 660 17 660 660 660 660 660 660 9 660 15 6 660 660 660 660 660 660 660 5 660 660 660 660 660 660 16 660 660 660 660 660 660 660 660 660 660 660 660 660 660 660 660 9 660 660 660 660 660 0 660 660 660 660 660 660 660 660 660 660 660 660 660 660 660 8 660 660 660 660 660 660 660 660 660 660 660 660 660 660 660 660 660 660 660 660 660 660 660 660 660
660 660 660 660 660 660 660 660 660 660 660 660 660 660 660 660 660 660 660 660 660 660 660 660 660 660 660 660 660 660 660 660 660 660 660 660 660 660 660 660 660 9 660 660 660 660 660 660 660 36 660 660 660 660 0 660 660 9 660 660 660 33 660 660 660 660 660 660 660 660 660 660 660 660 660 660 660 660 660 660 660 660 660 660 660 22 660 660 660 660 660 660 660 660 660
660 660 660 660 660 660 660 660 660 660 660 660 660 660 660 660 660 3 660 660 660 660 660 660 14 660 660 660 660 660 660 660 660 660 660 660 660 660 660 660 660 660 660 660 660 660 660 660 660 660 660 660 660 660 660 0 660 660 660 660 660 660 660 660 660 660 660 660 3 660 660 660 660 660 660 660 660 660 660 660 660 660 660 12 660 660 660 660 660 16 660 660 660 660 660
660 660 660 660 660 660 660 660 660 660 660 660 20 660 660 660 660 660 660 660 660 660 660 660 660 660 660 660 660 660 660 660 660 660 660 660 660 660 660 25 660 660 660 660 660 16 660 660 660 660 660 660 660 660 660 660 0 660 660 660 660 9 660 660 660 660 660 7 660 660 660 660 660 660 660 660 660 660 660 660 660 660 660 660 660 8 660 660 660 660 660 660 660 660 660
660 660 660 660 660 660 660 660 660 660 660 660 660 660 660 660 660 660 660 21 660 21 660 660 660 660 660 660 660 660 660 660 660 660 20 660 660 660 660 660 660 12 660 660 660 660 660 660 660 27 660 660 660 660 9 660 660 0 660 660 660 660 660 660 660 660 660 660 660 660 660 660 660 660 660 660 660 660 660 660 660 660 660 660 660 660 660 660 660 660 660 660 660 660 660
660 660 660 660 660 660 14 660 660 660 660 660 660 660 660 660 7 660 660 660 660 20 660 660 660 660 660 660 660 660 660 660 660 15 660 660 660 660 660 660 660 660 660 18 660 660 660 660 660 660 660 660 660 660 660 660 660 660 0 660 660 660 660 660 660 660 660 660 660 660 660 660 660 660 660 660 660 660 660 660 660 660 660 660 660 660 660 660 660 660 660 660 660 660 660
660 19 660 660 17 660 660 660 660 660 660 660 660 660 660 660 660 660 660 660 660 660 10 660 660 660 660 660 660 660 660 660 660 660 660 7 660 660 660 660 660 660 660 660 660 660 660 660 21 660 17 660 660 660 660 660 660 660 660 0 660 660 660 660 660 660 660 660 660 660 660 660 660 660 660 660 660 12 660 660 660 660 660 660 17 660 660 660 660 660 660 660 660 660 660
660 660 660 22 660 660 660 660 660 18 660 660 660 660 660 660 660 660 660 660 660 660 660 660 660 660 660 660 660 660 660 660 660 660 660 660 660 660 660 660 660 660 660 660 9 660 660 660 660 660 660 660 660 660 660 660 660 660 660 660 0 660 660 19 660 660 660 660 660 660 660 660 660 660 660 14 660 660 660 660 22 10 660 660 660 660 660 660 18 660 660 660 660 660 660
660 660 660 660 660 660 660 660 660 660 660 660 660 660 660 660 660 660 660 660 660 660 660 660 660 660 660 660 660 660 660 660 660 660 660 660 660 15 660 660 660 660 660 660 660 660 660 660 660 660 660 660 660 660 33 660 9 660 660 660 660 0 660 660 660 660 660 12 660 660 660 660 660 660 660 660 660 660 660 660 660 660 660 660 660 11 660 660 660 660 660 660 660 660 660
660 660 660 660 19 660 660 660 660 660 660 660 660 660 660 660 660 660 660 660 660 660 660 660 660 660 22 660 660 660 660 660 660 660 660 660 660 660 660 660 660 660 660 660 660 660 3 660 6 660 660 660 660 660 660 660 660 660 660 660 660 660 0 660 660 660 660 660 660 660 660 660 660 660 660 660 660 660 660 660 660 660 660 660 660 660 660 660 660 660 8 660 660 660 660
660 660 660 660 660 660 660 660 660 9 660 660 660 660 660 660 660 660 660 660 5 660 660 660 660 660 660 660 660 660 660 660 660 660 660 660 660 660 660 660 660 660 660 660 17 660 660 660 660 660 660 660 660 660 660 660 660 660 660 660 19 660 660 0 660 660 660 660 660 660 660 660 660 660 660 660 660 660 11 660 660 660 660 660 660 660 660 660 660 660 660 660 660 660 660
660 660 660 660 660 660 660 660 7 660 660 660 660 12 660 660 10 660 660 12 660 660 660 660 660 660 660 660 660 660 660 660 660 660 660 660 660 660 660 660 660 660 660 660 660 660 660 660 660 660 660 660 660 660 660 660 660 660 660 660 660 660 660 660 0 660 660 660 660 660 660 660 660 660 660 660 660 660 660 660 660 660 660 660 660 660 660 660 660 660 660 660 660 660 660
660 660 660 660 660 660 660 660 660 660 660 660 660 660 660 660 660 660 660 660 660 660 660 660 660 660 660 660 660 660 660 660 660 660 660 660 660 660 660 660 660 660 14 660 660 660 660 660 660 22 660 660 660 660 660 660 660 660 660 660 660 660 660 660 660 0 660 660 660 660 660 660 660 4 2 660 660 660 660 660 660 660 660 660 660 660 660 660 660 660 660 660 11 660 660
660 660 8 660 660 660 660 660 660 660 660 660 660 660 660 660 660 660 660 660 660 660 6 660 660 660 660 660 660 660 660 660 660 660 660 7 660 660 660 660 660 660 660 660 660 660 660 660 660 660 660 6 660 660 660 660 660 660 660 660 660 660 660 660 660 660 0 660 660 660 660 660 660 660 660 660 660 660 660 660 660 660 660 660 660 660 660 660 660 660 660 660 660 6 660
660 660 660 660 660 660 660 660 660 660 660 660 660 660 660 660 660 660 660 660 660 660 660 660 660 660 660 660 660 660 660 660 7 660 660 660 660 9 660 660 660 660 660 660 660 11 660 660 660 660 660 660 660 660 660 660 7 660 660 660 660 12 660 660 660 660 660 0 660 660 660 660 660 660 660 660 660 660 660 660 660 660 660 660 660 660 660 660 660 660 660 660 660 660 660
660 660 660 660 660 660 660 660 660 660 660 9 660 660 660 660 660 6 660 660 660 660 660 660 12 660 660 660 660 660 660 660 660 660 660 660 660 660 660 660 660 660 660 660 660 660 660 660 660 660 660 660 660 660 660 3 660 660 660 660 660 660 660 660 660 660 660 660 0 660 660 660 660 660 660 660 660 660 660 660 660 660 660 660 660 660 660 660 660 660 660 660 17 660 660
660 660 660 660 660 660 660 660 660 660 27 660 3 660 660 660 660 660 660 660 660 660 660 6 660 660 660 660 660 660 660 660 660 660 660 660 660 660 660 23 660 660 660 660 660 660 660 660 660 660 660 660 660 8 660 660 660 660 660 660 660 660 660 660 660 660 660 660 660 0 660 660 660 660 660 660 660 660 660 660 660 660 660 660 660 660 27 22 660 660 660 660 660 660 660
660 660 660 660 660 660 660 660 660 660 660 660 660 660 660 660 660 26 660 660 660 660 660 660 660 13 660 18 12 660 660 660 660 660 660 660 4 660 660 660 660 660 660 660 660 660 660 660 660 660 660 660 660 660 660 660 660 660 660 660 660 660 660 660 660 660 660 660 660 660 0 660 660 660 660 660 660 660 660 660 660 660 660 660 660 660 660 660 660 660 660 660 660 660 660
660 660 660 660 660 660 660 660 660 660 660 660 660 660 660 660 660 660 660 660 14 660 660 660 660 660 660 13 660 9 660 660 660 660 660 660 22 660 660 660 660 660 660 660 17 660 660 660 660 660 660 660 660 660 660 660 660 660 660 660 660 660 660 660 660 660 660 660 660 660 660 0 660 660 660 660 660 660 660 660 660 660 660 660 660 660 660 660 660 660 660 12 660 660 9
660 660 660 15 660 660 8 660 660 660 660 660 660 660 660 660 660 660 660 660 660 660 660 660 660 660 660 660 660 660 660 660 660 660 660 660 660 660 660 660 7 660 660 660 660 660 660 660 660 660 660 660 660 660 660 660 660 660 660 660 660 660 660 660 660 660 660 660 660 660 660 660 0 660 660 660 660 660 660 660 5 660 12 660 660 660 660 660 660 660 660 660 660 660 660
660 660 660 660 660 660 660 660 660 660 660 660 660 660 660 660 660 37 660 660 660 660 660 660 660 660 660 660 660 660 660 660 660 660 660 660 660 660 660 660 660 660 660 660 660 660 660 660 660 22 660 660 660 660 660 660 660 660 660 660 660 660 660 660 660 4 660 660 660 660 660 660 660 0 660 660 660 660 660 660 660 660 660 660 660 660 660 660 660 660 660 660 14 660 660
660 660 660 660 660 660 660 660 660 660 660 660 660 660 660 660 660 660 660 660 660 660 660 660 660 660 660 660 660 660 660 660 660 660 660 660 660 660 10 660 660 660 13 660 660 660 660 660 660 660 660 660 660 660 660 660 660 660 660 660 660 660 660 660 660 2 660 660 660 660 660 660 660 660 0 660 660 660 660 660 660 660 660 660 660 660 660 660 660 660 660 660 9 660 660
660 660 660 660 660 660 660 660 660 660 660 660 660 660 660 660 660 660 660 660 660 660 660 660 660 660 660 660 660 660 660 660 660 2 660 660 660 660 660 660 660 660 660 660 660 660 660 660 660 660 660 660 660 660 660 660 660 660 660 660 14 660 660 660 660 660 660 660 660 660 660 660 660 660 660 0 660 660 660 660 15 8 660 660 660 660 660 660 660 660 660 660 660 660 660
660 660 660 660 660 660 660 660 660 660 660 660 660 660 660 660 660 660 10 660 660 660 660 660 660 660 660 660 660 660 660 660 660 660 660 660 660 660 660 660 660 660 660 660 660 660 660 660 660 660 660 660 660 660 660 660 660 660 660 660 660 660 660 660 660 660 660 660 660 660 660 660 660 660 660 660 0 660 660 660 660 9 660 660 660 660 660 660 10 4 660 660 660 660 660
660 660 660 660 660 660 660 660 660 660 660 660 660 660 660 660 660 660 660 660 660 660 660 660 660 660 660 660 660 660 660 660 660 660 660 7 660 660 660 660 660 660 660 660 660 660 660 660 660 660 21 660 660 660 660 660 660 660 660 12 660 660 660 660 660 660 660 660 660 660 660 660 660 660 660 660 660 0 660 22 660 660 12 660 660 660 660 12 660 660 660 660 660 7 660
660 660 660 660 660 660 660 660 660 14 660 660 660 660 660 660 660 660 660 660 11 660 660 660 660 660 31 660 660 660 660 8 660 660 660 660 660 660 660 660 660 660 660 660 660 660 660 660 660 660 660 660 17 660 660 660 660 660 660 660 660 660 660 11 660 660 660 660 660 660 660 660 660 660 660 660 660 660 0 660 660 660 660 660 660 660 660 660 660 660 660 660 660 660 660
660 660 660 12 660 660 660 660 660 20 660 660 660 660 660 660 660 660 660 660 660 660 660 660 660 660 21 660 660 660 660 21 660 660 660 660 660 660 660 660 660 660 660 660 660 660 660 660 660 660 11 660 660 660 660 660 660 660 660 660 660 660 660 660 660 660 660 660 660 660 660 660 660 660 660 660 660 22 660 0 660 660 22 660 660 660 660 660 660 660 660 660 660 660 660
660 660 660 12 660 660 13 660 660 660 660 660 660 660 660 660 660 660 660 660 660 660 660 660 660 660 660 660 660 660 660 660 660 14 660 660 660 660 660 660 660 660 660 660 660 660 660 660 660 660 660 660 660 660 660 660 660 660 660 660 22 660 660 660 660 660 660 660 660 660 660 660 5 660 660 15 660 660 660 660 0 660 660 660 660 660 660 660 660 660 660 660 660 660 660
660 660 660 660 660 660 660 660 660 660 660 660 660 660 660 660 660 660 660 660 660 660 660 660 660 660 660 660 660 660 660 660 660 10 660 660 660 660 660 660 660 660 660 660 660 660 660 660 660 660 660 660 660 660 660 660 660 660 660 660 10 660 660 660 660 660 660 660 660 660 660 660 660 660 660 8 9 660 660 660 660 0 660 660 660 660 660 660 16 12 660 660 660 660 660
660 660 660 21 660 660 660 660 660 660 660 660 660 660 660 660 660 660 660 660 660 660 660 660 660 660 660 660 660 660 660 660 660 660 660 660 660 660 660 660 10 660 660 660 660 660 660 660 660 660 660 660 660 660 660 660 660 660 660 660 660 660 660 660 660 660 660 660 660 660 660 660 12 660 660 660 660 12 660 22 660 660 0 660 660 660 9 8 660 660 660 660 660 660 660
660 660 660 660 660 660 660 660 660 660 660 660 660 660 660 660 660 11 6 660 660 660 660 660 660 7 660 660 660 660 660 660 660 660 660 660 660 660 660 660 660 660 660 660 660 660 660 660 660 660 660 660 660 660 660 12 660 660 660 660 660 660 660 660 660 660 660 660 660 660 660 660 660 660 660 660 660 660 660 660 660 660 660 0 660 660 660 660 660 6 660 660 660 660 660
660 660 660 660 7 18 660 660 660 660 660 660 660 660 24 660 660 660 660 660 660 660 13 660 660 660 660 660 660 660 19 660 660 660 660 660 660 660 660 660 660 660 660 660 660 660 660 660 660 660 660 660 660 660 660 660 660 660 660 17 660 660 660 660 660 660 660 660 660 660 660 660 660 660 660 660 660 660 660 660 660 660 660 660 0 660 660 660 660 660 660 660 660 660 660
660 660 660 660 660 660 660 660 660 660 660 660 660 660 660 660 660 660 660 660 660 660 660 660 660 660 660 660 660 660 660 660 660 660 660 660 660 660 660 23 660 21 660 660 660 660 660 660 660 660 660 660 660 660 22 660 8 660 660 660 660 11 660 660 660 660 660 660 660 660 660 660 660 660 660 660 660 660 660 660 660 660 660 660 660 0 660 660 660 660 660 660 660 660 660
660 660 660 660 660 660 6 660 660 660 28 660 660 660 660 660 660 660 660 660 660 660 660 660 660 660 660 660 660 660 660 660 660 660 660 660 660 660 660 660 3 660 660 660 660 660 660 660 660 660 660 660 660 660 660 660 660 660 660 660 660 660 660 660 660 660 660 660 660 27 660 660 660 660 660 660 660 660 660 660 660 660 9 660 660 660 0 11 660 660 660 660 660 660 660
660 660 660 660 660 660 660 660 660 660 660 660 660 660 660 660 660 660 660 660 660 660 660 17 660 660 660 660 660 660 660 660 660 660 660 660 660 660 660 660 660 660 660 660 660 660 660 660 660 660 660 9 660 660 660 660 660 660 660 660 660 660 660 660 660 660 660 660 660 22 660 660 660 660 660 660 660 12 660 660 660 660 8 660 660 660 11 0 660 660 660 660 660 9 660
660 660 660 660 660 660 660 660 660 660 660 660 660 660 660 660 660 660 6 660 660 660 660 660 660 660 660 660 5 660 660 660 660 660 660 660 10 660 660 660 660 660 660 660 16 660 660 660 660 660 660 660 660 660 660 660 660 660 660 660 18 660 660 660 660 660 660 660 660 660 660 660 660 660 660 660 10 660 660 660 660 16 660 660 660 660 660 660 0 660 660 660 660 660 660
660 660 660 660 660 660 660 660 660 660 660 660 660 28 660 660 27 660 9 660 660 660 660 660 22 660 660 660 660 660 660 660 660 20 660 660 660 660 660 660 660 660 660 660 660 660 660 660 660 660 660 660 660 660 660 16 660 660 660 660 660 660 660 660 660 660 660 660 660 660 660 660 660 660 660 660 4 660 660 660 660 12 660 6 660 660 660 660 660 0 660 660 660 660 660
660 660 660 660 23 660 660 660 660 660 660 660 660 660 55 660 660 660 660 660 660 660 660 660 660 660 29 660 660 660 660 660 660 660 660 660 660 660 660 660 660 660 660 660 660 660 660 660 660 660 660 660 76 660 660 660 660 660 660 660 660 660 8 660 660 660 660 660 660 660 660 660 660 660 660 660 660 660 660 660 660 660 660 660 660 660 660 660 660 660 0 660 660 660 660
660 660 660 660 660 660 660 660 660 660 660 660 660 660 660 660 660 660 660 660 660 660 660 660 660 660 660 6 660 8 660 660 660 660 660 660 660 660 660 660 660 660 660 660 660 660 660 660 660 660 660 660 660 660 660 660 660 660 660 660 660 660 660 660 660 660 660 660 660 660 660 12 660 660 660 660 660 660 660 660 660 660 660 660 660 660 660 660 660 660 660 0 660 660 660
660 660 660 660 660 660 660 660 660 660 660 10 660 660 660 660 660 23 660 660 660 660 660 660 660 660 660 660 660 660 660 660 660 660 660 660 660 660 5 660 660 660 660 660 660 660 660 660 660 660 660 660 660 660 660 660 660 660 660 660 660 660 660 660 660 11 660 660 17 660 660 660 660 14 9 660 660 660 660 660 660 660 660 660 660 660 660 660 660 660 660 660 0 660 660
660 660 660 660 660 660 660 660 660 660 660 660 660 660 660 660 660 660 660 660 660 660 660 660 660 660 660 660 660 660 660 660 660 660 660 10 660 660 660 660 660 660 660 660 660 660 660 660 660 660 660 2 660 660 660 660 660 660 660 660 660 660 660 660 660 660 6 660 660 660 660 660 660 660 660 660 660 7 660 660 660 660 660 660 660 660 660 9 660 660 660 660 660 0 660
660 660 660 660 660 660 660 660 660 660 660 660 660 660 660 660 660 660 660 660 10 660 660 660 660 660 660 660 660 10 660 660 660 660 660 660 660 660 660 660 660 660 660 660 660 660 660 660 660 660 660 660 2 660 660 660 660 660 660 660 660 660 660 660 660 660 660 660 660 660 660 9 660 660 660 660 660 660 660 660 660 660 660 660 660 660 660 660 660 660 660 660 660 660 0
EOF
